NAME /Users/henri/Research/solvers/instances/idol-instances/robust/collection/cbp_Subramanyam_et_al_2020/CapBud_N5_18/models/uncertain_technology_matrix/
ROWS
 N  OBJ
 L  capacity
 L  c_375
 L  c_376
 L  c_377
 L  c_378
 L  c_379
COLUMNS
    MARKER    'MARKER'                 'INTORG'
    x_0        OBJ        -6.68234
    x_0        c_375      1
    x_0        capacity   1.33647
    x_1        OBJ        -4.56885
    x_1        c_376      1
    x_1        capacity   0.913769
    x_2        OBJ        -0.850668
    x_2        c_377      1
    x_2        capacity   0.170134
    x_3        OBJ        -2.33174
    x_3        c_378      1
    x_3        capacity   0.466348
    x_4        OBJ        -0.813717
    x_4        c_379      1
    x_4        capacity   0.162743
    y_0        OBJ        -5.34587
    y_0        c_375      1
    y_0        capacity   1.33647
    y_1        OBJ        -3.65508
    y_1        c_376      1
    y_1        capacity   0.913769
    y_2        OBJ        -0.680534
    y_2        c_377      1
    y_2        capacity   0.170134
    y_3        OBJ        -1.86539
    y_3        c_378      1
    y_3        capacity   0.466348
    y_4        OBJ        -0.650974
    y_4        c_379      1
    y_4        capacity   0.162743
    MARKER    'MARKER'                 'INTEND'
RHS
    RHS       capacity   7.62365
    RHS       c_375      1
    RHS       c_376      1
    RHS       c_377      1
    RHS       c_378      1
    RHS       c_379      1
BOUNDS
 LI BND       x_0        0
 UI BND       x_0        1
 LI BND       x_1        0
 UI BND       x_1        1
 LI BND       x_2        0
 UI BND       x_2        1
 LI BND       x_3        0
 UI BND       x_3        1
 LI BND       x_4        0
 UI BND       x_4        1
 LI BND       y_0        0
 UI BND       y_0        1
 LI BND       y_1        0
 UI BND       y_1        1
 LI BND       y_2        0
 UI BND       y_2        1
 LI BND       y_3        0
 UI BND       y_3        1
 LI BND       y_4        0
 UI BND       y_4        1
ENDATA
